NAME : traveling-santa-2018-prime-paths.28544.tour
COMMENT : Length = 28544
COMMENT : Found by LKH [Keld Helsgaun] Sun Jun 12 19:59:40 2022
TYPE : TOUR
DIMENSION : 100
TOUR_SECTION
1
31
45
43
77
95
82
8
52
46
83
44
11
13
38
97
88
17
89
71
93
99
98
33
36
27
78
10
91
32
63
3
24
25
58
86
87
26
49
68
64
100
94
92
76
4
41
7
90
66
74
81
84
96
62
47
70
59
79
48
80
21
57
2
67
28
6
19
61
9
29
54
85
42
30
73
60
18
22
16
12
56
5
65
75
23
35
15
50
39
20
72
69
53
55
37
51
40
14
34
-1
EOF
